NAME : portcgen-15-50
COMMENT : portcgen N=15, seed=50
TYPE : TSP
DIMENSION : 15
EDGE_WEIGHT_TYPE : EUC_2D
NODE_COORD_SECTION
1 82 71
2 77 70
3 92 36
4 80 57
5 74 72
6 86 25
7 96 84
8 98 62
9 75 41
10 93 59
11 95 39
12 75 64
13 81 68
14 63 71
15 77 71
